<?xml version="1.0" encoding="UTF-8"?><osil xmlns="os.optimizationservices.org" xmlns:xsi="http://www.w3.org/2001/XMLSchema-instance" xsi:schemaLocation="os.optimizationservices.org http://www.optimizationservices.org/schemas/2.0/OSiL.xsd"><instanceHeader><name>ex1265a</name></instanceHeader><instanceData><variables numberOfVariables="35"><var name="i1" type="I" ub="5"/><var name="i2" type="I" ub="5"/><var name="i3" type="I" ub="5"/><var name="i4" type="I" ub="5"/><var name="i5" type="I" ub="5"/><var name="i6" type="I" ub="5"/><var name="i7" type="I" ub="5"/><var name="i8" type="I" ub="5"/><var name="i9" type="I" ub="5"/><var name="i10" type="I" ub="5"/><var name="i11" type="I" ub="5"/><var name="i12" type="I" ub="5"/><var name="i13" type="I" ub="5"/><var name="i14" type="I" ub="5"/><var name="i15" type="I" ub="5"/><var name="i16" type="I" ub="5"/><var name="i17" type="I" ub="5"/><var name="i18" type="I" ub="5"/><var name="i19" type="I" ub="5"/><var name="i20" type="I" ub="5"/><var name="i21" type="I" ub="5"/><var name="i22" type="I" ub="5"/><var name="i23" type="I" ub="5"/><var name="i24" type="I" ub="5"/><var name="i25" type="I" ub="5"/><var name="b26" type="B" ub="1"/><var name="b27" type="B" ub="1"/><var name="b28" type="B" ub="1"/><var name="b29" type="B" ub="1"/><var name="b30" type="B" ub="1"/><var name="i31" type="I" ub="15"/><var name="i32" type="I" ub="12"/><var name="i33" type="I" ub="9"/><var name="i34" type="I" ub="6"/><var name="i35" type="I" ub="6"/></variables><objectives><obj maxOrMin="min" name="defObj_objvar" numberOfObjCoef="10"><coef idx="25">.1</coef><coef idx="26">.2</coef><coef idx="27">.3</coef><coef idx="28">.4</coef><coef idx="29">.5</coef><coef idx="30">1</coef><coef idx="31">1</coef><coef idx="32">1</coef><coef idx="33">1</coef><coef idx="34">1</coef></obj></objectives><constraints numberOfConstraints="44"><con name="e2" lb="12"/><con name="e3" lb="6"/><con name="e4" lb="15"/><con name="e5" lb="6"/><con name="e6" lb="9"/><con name="e7" ub="0"/><con name="e8" ub="0"/><con name="e9" ub="0"/><con name="e10" ub="0"/><con name="e11" ub="0"/><con name="e12" ub="0"/><con name="e13" ub="0"/><con name="e14" ub="0"/><con name="e15" ub="0"/><con name="e16" ub="0"/><con name="e17" ub="0"/><con name="e18" ub="0"/><con name="e19" ub="0"/><con name="e20" ub="0"/><con name="e21" ub="0"/><con name="e22" ub="0"/><con name="e23" ub="0"/><con name="e24" ub="0"/><con name="e25" ub="0"/><con name="e26" ub="0"/><con name="e27" ub="0"/><con name="e28" ub="0"/><con name="e29" ub="0"/><con name="e30" ub="0"/><con name="e31" ub="0"/><con name="e32" ub="0"/><con name="e33" ub="0"/><con name="e34" ub="0"/><con name="e35" ub="0"/><con name="e36" ub="0"/><con name="e37" lb="10"/><con name="e38" ub="0"/><con name="e39" ub="0"/><con name="e40" ub="0"/><con name="e41" ub="0"/><con name="e42" ub="0"/><con name="e43" ub="0"/><con name="e44" ub="0"/><con name="e45" ub="0"/></constraints><linearConstraintCoefficients numberOfValues="161"><start><el mult="6">0</el><el mult="20" incr="6">6</el><el mult="10" incr="2">122</el><el mult="9" incr="2">145</el></start><colIdx><el mult="6" incr="5">0</el><el mult="6" incr="5">1</el><el mult="6" incr="5">2</el><el mult="6" incr="5">3</el><el mult="6" incr="5">4</el><el mult="6" incr="5">0</el><el mult="6" incr="5">1</el><el mult="6" incr="5">2</el><el mult="6" incr="5">3</el><el mult="6" incr="5">4</el><el mult="6" incr="5">0</el><el mult="6" incr="5">1</el><el mult="6" incr="5">2</el><el mult="6" incr="5">3</el><el mult="6" incr="5">4</el><el mult="6" incr="5">0</el><el mult="6" incr="5">1</el><el mult="6" incr="5">2</el><el mult="6" incr="5">3</el><el mult="6" incr="5">4</el><el>25</el><el>30</el><el>26</el><el>31</el><el>27</el><el>32</el><el>28</el><el>33</el><el>29</el><el>34</el><el>25</el><el>30</el><el>26</el><el>31</el><el>27</el><el>32</el><el>28</el><el>33</el><el>29</el><el>34</el><el mult="5" incr="1">30</el><el>25</el><el mult="2">26</el><el mult="2">27</el><el mult="2">28</el><el mult="3" incr="1">29</el><el>31</el><el mult="2">32</el><el mult="2">33</el><el>34</el></colIdx><value><el>-3.3e2</el><el>-3.6e2</el><el>-3.7e2</el><el>-415</el><el>-435</el><el>1.8e3</el><el>-3.3e2</el><el>-3.6e2</el><el>-3.7e2</el><el>-415</el><el>-435</el><el>1.8e3</el><el>-3.3e2</el><el>-3.6e2</el><el>-3.7e2</el><el>-415</el><el>-435</el><el>1.8e3</el><el>-3.3e2</el><el>-3.6e2</el><el>-3.7e2</el><el>-415</el><el>-435</el><el>1.8e3</el><el>-3.3e2</el><el>-3.6e2</el><el>-3.7e2</el><el>-415</el><el>-435</el><el>1.8e3</el><el>3.3e2</el><el>3.6e2</el><el>3.7e2</el><el>415</el><el>435</el><el>-2e3</el><el>3.3e2</el><el>3.6e2</el><el>3.7e2</el><el>415</el><el>435</el><el>-2e3</el><el>3.3e2</el><el>3.6e2</el><el>3.7e2</el><el>415</el><el>435</el><el>-2e3</el><el>3.3e2</el><el>3.6e2</el><el>3.7e2</el><el>415</el><el>435</el><el>-2e3</el><el>3.3e2</el><el>3.6e2</el><el>3.7e2</el><el>415</el><el>435</el><el>-2e3</el><el mult="5">-1</el><el>1</el><el mult="5">-1</el><el>1</el><el mult="5">-1</el><el>1</el><el mult="5">-1</el><el>1</el><el mult="5">-1</el><el mult="6">1</el><el>-5</el><el mult="5">1</el><el>-5</el><el mult="5">1</el><el>-5</el><el mult="5">1</el><el>-5</el><el mult="5">1</el><el>-5</el><el>1</el><el>-1</el><el>1</el><el>-1</el><el>1</el><el>-1</el><el>1</el><el>-1</el><el>1</el><el>-1</el><el>-15</el><el>1</el><el>-12</el><el>1</el><el>-9</el><el>1</el><el>-6</el><el>1</el><el>-6</el><el mult="6">1</el><el>-1</el><el>1</el><el>-1</el><el>1</el><el>-1</el><el>1</el><el>-1</el><el>1</el><el>-1</el><el>1</el><el>-1</el><el>1</el><el>-1</el><el>1</el><el>-1</el><el>1</el></value></linearConstraintCoefficients><quadraticCoefficients numberOfQuadraticTerms="25"><qTerm idx="0" idxOne="0" idxTwo="30" coef="1"/><qTerm idx="0" idxOne="1" idxTwo="31" coef="1"/><qTerm idx="0" idxOne="2" idxTwo="32" coef="1"/><qTerm idx="0" idxOne="3" idxTwo="33" coef="1"/><qTerm idx="0" idxOne="4" idxTwo="34" coef="1"/><qTerm idx="1" idxOne="5" idxTwo="30" coef="1"/><qTerm idx="1" idxOne="6" idxTwo="31" coef="1"/><qTerm idx="1" idxOne="7" idxTwo="32" coef="1"/><qTerm idx="1" idxOne="8" idxTwo="33" coef="1"/><qTerm idx="1" idxOne="9" idxTwo="34" coef="1"/><qTerm idx="2" idxOne="10" idxTwo="30" coef="1"/><qTerm idx="2" idxOne="11" idxTwo="31" coef="1"/><qTerm idx="2" idxOne="12" idxTwo="32" coef="1"/><qTerm idx="2" idxOne="13" idxTwo="33" coef="1"/><qTerm idx="2" idxOne="14" idxTwo="34" coef="1"/><qTerm idx="3" idxOne="15" idxTwo="30" coef="1"/><qTerm idx="3" idxOne="16" idxTwo="31" coef="1"/><qTerm idx="3" idxOne="17" idxTwo="32" coef="1"/><qTerm idx="3" idxOne="18" idxTwo="33" coef="1"/><qTerm idx="3" idxOne="19" idxTwo="34" coef="1"/><qTerm idx="4" idxOne="20" idxTwo="30" coef="1"/><qTerm idx="4" idxOne="21" idxTwo="31" coef="1"/><qTerm idx="4" idxOne="22" idxTwo="32" coef="1"/><qTerm idx="4" idxOne="23" idxTwo="33" coef="1"/><qTerm idx="4" idxOne="24" idxTwo="34" coef="1"/></quadraticCoefficients></instanceData></osil>